
Gurobi 10.0.1 (win64) logging started Sat Sep 16 16:57:21 2023

Set parameter LogFile to value "./results-heuristic-start//log/Fattahi_setup_12_modified_old_makespan.log"
Gurobi Optimizer version 10.0.1 build v10.0.1rc0 (win64)

CPU model: AMD Ryzen 7 3700X 8-Core Processor, instruction set [SSE2|AVX|AVX2]
Thread count: 8 physical cores, 16 logical processors, using up to 16 threads

Optimize a model with 322 rows, 304 columns and 1316 nonzeros
Model fingerprint: 0xe1c2c615
Variable types: 39 continuous, 265 integer (264 binary)
Coefficient statistics:
  Matrix range     [1e+00, 1e+06]
  Objective range  [1e+00, 1e+00]
  Bounds range     [1e+00, 1e+00]
  RHS range        [1e+00, 3e+06]

Warning: Completing partial solution with 250 unfixed non-continuous variables out of 265
User MIP start did not produce a new incumbent solution
User MIP start violates constraint initial_start_time_job0_stage0_machine2_constraint by 420.000000000

Presolve removed 45 rows and 158 columns
Presolve time: 0.00s
Presolved: 277 rows, 146 columns, 1250 nonzeros
Variable types: 39 continuous, 107 integer (106 binary)
Found heuristic solution: objective 12570.000000
Found heuristic solution: objective 8442.0000000
Found heuristic solution: objective 7614.0000000

Root relaxation: objective 4.000000e+03, 81 iterations, 0.00 seconds (0.00 work units)

    Nodes    |    Current Node    |     Objective Bounds      |     Work
 Expl Unexpl |  Obj  Depth IntInf | Incumbent    BestBd   Gap | It/Node Time

     0     0 4000.00000    0   17 7614.00000 4000.00000  47.5%     -    0s
Another try with MIP start
H    0     0                    6169.0000000 4000.00000  35.2%     -    0s
H    0     0                    5922.0000000 4000.00000  32.5%     -    0s
H    0     0                    5921.0000000 4000.00000  32.4%     -    0s
H    0     0                    5919.0000000 4000.00000  32.4%     -    0s
H    0     0                    5808.0000000 4000.00000  31.1%     -    0s
H    0     0                    5705.0000000 4040.00000  29.2%     -    0s
     0     0 4040.00000    0   15 5705.00000 4040.00000  29.2%     -    0s
     0     0 4040.00000    0   19 5705.00000 4040.00000  29.2%     -    0s
     0     0 4040.03553    0   18 5705.00000 4040.03553  29.2%     -    0s
     0     0 4043.50602    0   19 5705.00000 4043.50602  29.1%     -    0s
     0     0 4049.00000    0   20 5705.00000 4049.00000  29.0%     -    0s
     0     0 4050.00000    0   16 5705.00000 4050.00000  29.0%     -    0s
     0     0 4056.50602    0   19 5705.00000 4056.50602  28.9%     -    0s
     0     0 4057.00000    0   17 5705.00000 4057.00000  28.9%     -    0s
     0     0 4057.00000    0   18 5705.00000 4057.00000  28.9%     -    0s
     0     0 4057.00000    0   18 5705.00000 4057.00000  28.9%     -    0s
     0     0 4058.00000    0   17 5705.00000 4058.00000  28.9%     -    0s
     0     0 4058.00000    0   20 5705.00000 4058.00000  28.9%     -    0s
     0     0 4058.00000    0   21 5705.00000 4058.00000  28.9%     -    0s
     0     0 4058.47826    0   18 5705.00000 4058.47826  28.9%     -    0s
     0     2 4058.47826    0   17 5705.00000 4058.47826  28.9%     -    0s
H   82    62                    5665.0000000 4058.47826  28.4%   7.3    0s
H  133    88                    5459.0000000 4058.47826  25.7%   6.2    0s
H  176   110                    5450.0000000 4065.09790  25.4%   5.8    0s
* 2030   649              25    5415.0000000 4242.41616  21.7%   4.2    0s
* 2851   898              32    5401.0000000 4348.00000  19.5%   4.1    0s
* 4940  1402              34    5385.0000000 4454.67666  17.3%   3.9    0s
*23116 10626              54    5361.0000000 4467.10175  16.7%   3.3    0s
*26750 10259              47    5308.0000000 4467.10175  15.8%   3.3    0s

Cutting planes:
  Learned: 3
  Gomory: 11
  MIR: 5
  Flow cover: 5
  RLT: 1

Explored 66733 nodes (325015 simplex iterations) in 2.98 seconds (1.86 work units)
Thread count was 16 (of 16 available processors)

Solution count 10: 5308 5361 5385 ... 5808

Optimal solution found (tolerance 1.00e-04)
Best objective 5.308000000000e+03, best bound 5.308000000000e+03, gap 0.0000%
Warning: constraint name "precedence between 0,1 to 0,0 if x_[j,l,h,z,i]=1" has a space
Warning: constraint name "precedence between 0,1 to 0,0 if x_[j,l,h,z,i]=1" has a space
Warning: default constraint names used to write mps file
